c Sudoku solution
p cnf 729 0
126 0
189 0
219 0
248 0
261 0
273 0
314 0
333 0
347 0
386 0
256 0
498 0
511 0
529 0
562 0
574 0
636 0
665 0
369 0
687 0
775 0
821 0
131 0
846 0
543 0
466 0
596 0
585 0
976 0
716 0
893 0
483 0
932 0
941 0
145 0
352 0
742 0
781 0
955 0
999 0
815 0
444 0
649 0
624 0
613 0
538 0
479 0
451 0
658 0
557 0
859 0
753 0
923 0
739 0
834 0
154 0
163 0
284 0
882 0
988 0
794 0
877 0
964 0
868 0
767 0
728 0
917 0
412 0
118 0
222 0
237 0
325 0
378 0
391 0
295 0
427 0
435 0
671 0
692 0
172 0
197 0
